1493.92
98 97 96 95 94 4 5 15 6 7 16 17 8 9 10 1 11 2 3 93 92 91 90 89 88 0 87 86 85 76 67 68 77 78 79 70 71 72 63 64 65 66 57 56 55 54 53 62 61 60 69 59 58 49 50 51 52 73 74 82 83 84 75 81 80 20 12 21 19 18 28 27 36 37 38 46 47 39 48 45 35 44 43 42 41 40 31 32 33 34 26 25 24 23 14 13 22 29 30 
